pyomo/data/cute/hs099.ampl.col
x[1]
x[2]
x[3]
x[4]
x[5]
x[6]
x[7]
q[1]
q[2]
q[3]
q[4]
q[5]
q[6]
q[7]
q[8]
s[1]
s[2]
s[3]
s[4]
s[5]
s[6]
s[7]
s[8]
